p cnf 1946
-24 -612
-25 -615
-26 -618
-27 -621
-28 -624
-29 -627
-30 -630
-31 -633
-32 -636
-33 -639
-34 -642
-35 -645
-36 -648
-37 -651
-38 -654
-39 -657
-40 -660
-41 -663
-42 -666
-43 -669
-44 -672
-45 -675
-46 -678
-47 679
-48 680
-49 681
-50 682
-51 683
-52 684
-53 685
-54 686
-55 687
-56 688
-57 689
-58 690
-59 691
-60 692
-61 693
-62 694
-63 695
-64 696
-65 697
-66 698
-67 -25
-67 -26
25 26 67
-68 -27
-68 -28
27 28 68
-69 -29
-69 -30
29 30 69
-70 -31
-70 -32
31 32 70
-71 -33
-71 -34
33 34 71
-72 -35
-72 -36
35 36 72
-73 -37
-73 -38
37 38 73
-74 -39
-74 -40
39 40 74
-75 -41
-75 -42
41 42 75
-76 -43
-76 -44
43 44 76
-77 -45
-77 -46
45 46 77
-78 -47
-78 -48
47 48 78
-79 -49
-79 -50
49 50 79
-80 -51
-80 -52
51 52 80
-81 -53
-81 -54
53 54 81
-82 -55
-82 -56
55 56 82
-83 -57
-83 -58
57 58 83
-84 -59
-84 -60
59 60 84
-85 -61
-85 -62
61 62 85
-86 -63
-86 -64
63 64 86
-87 -65
-87 -66
65 66 87
-88 67
-88 68
-67 -68 88
-89 69
-89 70
-69 -70 89
-90 71
-90 72
-71 -72 90
-91 73
-91 74
-73 -74 91
-92 75
-92 76
-75 -76 92
-93 77
-93 78
-77 -78 93
-94 79
-94 80
-79 -80 94
-95 81
-95 82
-81 -82 95
-96 83
-96 84
-83 -84 96
-97 85
-97 86
-85 -86 97
-98 88
-98 89
-88 -89 98
-99 90
-99 91
-90 -91 99
-100 92
-100 93
-92 -93 100
-101 94
-101 95
-94 -95 101
-102 96
-102 97
-96 -97 102
-103 98
-103 99
-98 -99 103
-104 100
-104 101
-100 -101 104
-105 87
-105 102
-87 -102 105
-106 103
-106 104
-103 -104 106
-107 105
-107 106
-105 -106 107
-108 -24
-108 25
24 -25 108
-109 24
-109 -25
-24 25 109
-110 -108
-110 -109
108 109 110
-111 24
-111 25
-24 -25 111
-112 -24
-112 -110
24 110 112
-113 24
-113 110
-24 -110 113
-114 -112
-114 -113
112 113 114
-115 24
-115 -110
-24 110 115
-116 -111
-116 -115
111 115 116
-117 -25
-117 26
25 -26 117
-118 25
-118 -26
-25 26 118
-119 -117
-119 -118
117 118 119
-120 25
-120 26
-25 -26 120
-121 116
-121 -119
-116 119 121
-122 -116
-122 119
116 -119 122
-123 -121
-123 -122
121 122 123
-124 -116
-124 -119
116 119 124
-125 -120
-125 -124
120 124 125
-126 -26
-126 27
26 -27 126
-127 26
-127 -27
-26 27 127
-128 -126
-128 -127
126 127 128
-129 26
-129 27
-26 -27 129
-130 125
-130 -128
-125 128 130
-131 -125
-131 128
125 -128 131
-132 -130
-132 -131
130 131 132
-133 -125
-133 -128
125 128 133
-134 -129
-134 -133
129 133 134
-135 -27
-135 28
27 -28 135
-136 27
-136 -28
-27 28 136
-137 -135
-137 -136
135 136 137
-138 27
-138 28
-27 -28 138
-139 134
-139 -137
-134 137 139
-140 -134
-140 137
134 -137 140
-141 -139
-141 -140
139 140 141
-142 -134
-142 -137
134 137 142
-143 -138
-143 -142
138 142 143
-144 -28
-144 29
28 -29 144
-145 28
-145 -29
-28 29 145
-146 -144
-146 -145
144 145 146
-147 28
-147 29
-28 -29 147
-148 143
-148 -146
-143 146 148
-149 -143
-149 146
143 -146 149
-150 -148
-150 -149
148 149 150
-151 -143
-151 -146
143 146 151
-152 -147
-152 -151
147 151 152
-153 -29
-153 30
29 -30 153
-154 29
-154 -30
-29 30 154
-155 -153
-155 -154
153 154 155
-156 29
-156 30
-29 -30 156
-157 152
-157 -155
-152 155 157
-158 -152
-158 155
152 -155 158
-159 -157
-159 -158
157 158 159
-160 -152
-160 -155
152 155 160
-161 -156
-161 -160
156 160 161
-162 -30
-162 31
30 -31 162
-163 30
-163 -31
-30 31 163
-164 -162
-164 -163
162 163 164
-165 30
-165 31
-30 -31 165
-166 161
-166 -164
-161 164 166
-167 -161
-167 164
161 -164 167
-168 -166
-168 -167
166 167 168
-169 -161
-169 -164
161 164 169
-170 -165
-170 -169
165 169 170
-171 -31
-171 32
31 -32 171
-172 31
-172 -32
-31 32 172
-173 -171
-173 -172
171 172 173
-174 31
-174 32
-31 -32 174
-175 170
-175 -173
-170 173 175
-176 -170
-176 173
170 -173 176
-177 -175
-177 -176
175 176 177
-178 -170
-178 -173
170 173 178
-179 -174
-179 -178
174 178 179
-180 -32
-180 33
32 -33 180
-181 32
-181 -33
-32 33 181
-182 -180
-182 -181
180 181 182
-183 32
-183 33
-32 -33 183
-184 179
-184 -182
-179 182 184
-185 -179
-185 182
179 -182 185
-186 -184
-186 -185
184 185 186
-187 -179
-187 -182
179 182 187
-188 -183
-188 -187
183 187 188
-189 -33
-189 34
33 -34 189
-190 33
-190 -34
-33 34 190
-191 -189
-191 -190
189 190 191
-192 33
-192 34
-33 -34 192
-193 188
-193 -191
-188 191 193
-194 -188
-194 191
188 -191 194
-195 -193
-195 -194
193 194 195
-196 -188
-196 -191
188 191 196
-197 -192
-197 -196
192 196 197
-198 -34
-198 35
34 -35 198
-199 34
-199 -35
-34 35 199
-200 -198
-200 -199
198 199 200
-201 34
-201 35
-34 -35 201
-202 197
-202 -200
-197 200 202
-203 -197
-203 200
197 -200 203
-204 -202
-204 -203
202 203 204
-205 -197
-205 -200
197 200 205
-206 -201
-206 -205
201 205 206
-207 -35
-207 36
35 -36 207
-208 35
-208 -36
-35 36 208
-209 -207
-209 -208
207 208 209
-210 35
-210 36
-35 -36 210
-211 206
-211 -209
-206 209 211
-212 -206
-212 209
206 -209 212
-213 -211
-213 -212
211 212 213
-214 -206
-214 -209
206 209 214
-215 -210
-215 -214
210 214 215
-216 -36
-216 37
36 -37 216
-217 36
-217 -37
-36 37 217
-218 -216
-218 -217
216 217 218
-219 36
-219 37
-36 -37 219
-220 215
-220 -218
-215 218 220
-221 -215
-221 218
215 -218 221
-222 -220
-222 -221
220 221 222
-223 -215
-223 -218
215 218 223
-224 -219
-224 -223
219 223 224
-225 -37
-225 38
37 -38 225
-226 37
-226 -38
-37 38 226
-227 -225
-227 -226
225 226 227
-228 37
-228 38
-37 -38 228
-229 224
-229 -227
-224 227 229
-230 -224
-230 227
224 -227 230
-231 -229
-231 -230
229 230 231
-232 -224
-232 -227
224 227 232
-233 -228
-233 -232
228 232 233
-234 -38
-234 39
38 -39 234
-235 38
-235 -39
-38 39 235
-236 -234
-236 -235
234 235 236
-237 38
-237 39
-38 -39 237
-238 233
-238 -236
-233 236 238
-239 -233
-239 236
233 -236 239
-240 -238
-240 -239
238 239 240
-241 -233
-241 -236
233 236 241
-242 -237
-242 -241
237 241 242
-243 -39
-243 40
39 -40 243
-244 39
-244 -40
-39 40 244
-245 -243
-245 -244
243 244 245
-246 39
-246 40
-39 -40 246
-247 242
-247 -245
-242 245 247
-248 -242
-248 245
242 -245 248
-249 -247
-249 -248
247 248 249
-250 -242
-250 -245
242 245 250
-251 -246
-251 -250
246 250 251
-252 -40
-252 41
40 -41 252
-253 40
-253 -41
-40 41 253
-254 -252
-254 -253
252 253 254
-255 40
-255 41
-40 -41 255
-256 251
-256 -254
-251 254 256
-257 -251
-257 254
251 -254 257
-258 -256
-258 -257
256 257 258
-259 -251
-259 -254
251 254 259
-260 -255
-260 -259
255 259 260
-261 -41
-261 42
41 -42 261
-262 41
-262 -42
-41 42 262
-263 -261
-263 -262
261 262 263
-264 41
-264 42
-41 -42 264
-265 260
-265 -263
-260 263 265
-266 -260
-266 263
260 -263 266
-267 -265
-267 -266
265 266 267
-268 -260
-268 -263
260 263 268
-269 -264
-269 -268
264 268 269
-270 -42
-270 43
42 -43 270
-271 42
-271 -43
-42 43 271
-272 -270
-272 -271
270 271 272
-273 42
-273 43
-42 -43 273
-274 269
-274 -272
-269 272 274
-275 -269
-275 272
269 -272 275
-276 -274
-276 -275
274 275 276
-277 -269
-277 -272
269 272 277
-278 -273
-278 -277
273 277 278
-279 -43
-279 44
43 -44 279
-280 43
-280 -44
-43 44 280
-281 -279
-281 -280
279 280 281
-282 43
-282 44
-43 -44 282
-283 278
-283 -281
-278 281 283
-284 -278
-284 281
278 -281 284
-285 -283
-285 -284
283 284 285
-286 -278
-286 -281
278 281 286
-287 -282
-287 -286
282 286 287
-288 -44
-288 45
44 -45 288
-289 44
-289 -45
-44 45 289
-290 -288
-290 -289
288 289 290
-291 44
-291 45
-44 -45 291
-292 287
-292 -290
-287 290 292
-293 -287
-293 290
287 -290 293
-294 -292
-294 -293
292 293 294
-295 -287
-295 -290
287 290 295
-296 -291
-296 -295
291 295 296
-297 -45
-297 46
45 -46 297
-298 45
-298 -46
-45 46 298
-299 -297
-299 -298
297 298 299
-300 45
-300 46
-45 -46 300
-301 296
-301 -299
-296 299 301
-302 -296
-302 299
296 -299 302
-303 -301
-303 -302
301 302 303
-304 -296
-304 -299
296 299 304
-305 -300
-305 -304
300 304 305
-306 -46
-306 47
46 -47 306
-307 46
-307 -47
-46 47 307
-308 -306
-308 -307
306 307 308
-309 46
-309 47
-46 -47 309
-310 305
-310 -308
-305 308 310
-311 -305
-311 308
305 -308 311
-312 -310
-312 -311
310 311 312
-313 -305
-313 -308
305 308 313
-314 -309
-314 -313
309 313 314
-315 -47
-315 48
47 -48 315
-316 47
-316 -48
-47 48 316
-317 -315
-317 -316
315 316 317
-318 47
-318 48
-47 -48 318
-319 314
-319 -317
-314 317 319
-320 -314
-320 317
314 -317 320
-321 -319
-321 -320
319 320 321
-322 -314
-322 -317
314 317 322
-323 -318
-323 -322
318 322 323
-324 -48
-324 49
48 -49 324
-325 48
-325 -49
-48 49 325
-326 -324
-326 -325
324 325 326
-327 48
-327 49
-48 -49 327
-328 323
-328 -326
-323 326 328
-329 -323
-329 326
323 -326 329
-330 -328
-330 -329
328 329 330
-331 -323
-331 -326
323 326 331
-332 -327
-332 -331
327 331 332
-333 -49
-333 50
49 -50 333
-334 49
-334 -50
-49 50 334
-335 -333
-335 -334
333 334 335
-336 49
-336 50
-49 -50 336
-337 332
-337 -335
-332 335 337
-338 -332
-338 335
332 -335 338
-339 -337
-339 -338
337 338 339
-340 -332
-340 -335
332 335 340
-341 -336
-341 -340
336 340 341
-342 -50
-342 51
50 -51 342
-343 50
-343 -51
-50 51 343
-344 -342
-344 -343
342 343 344
-345 50
-345 51
-50 -51 345
-346 341
-346 -344
-341 344 346
-347 -341
-347 344
341 -344 347
-348 -346
-348 -347
346 347 348
-349 -341
-349 -344
341 344 349
-350 -345
-350 -349
345 349 350
-351 -51
-351 52
51 -52 351
-352 51
-352 -52
-51 52 352
-353 -351
-353 -352
351 352 353
-354 51
-354 52
-51 -52 354
-355 350
-355 -353
-350 353 355
-356 -350
-356 353
350 -353 356
-357 -355
-357 -356
355 356 357
-358 -350
-358 -353
350 353 358
-359 -354
-359 -358
354 358 359
-360 -52
-360 53
52 -53 360
-361 52
-361 -53
-52 53 361
-362 -360
-362 -361
360 361 362
-363 52
-363 53
-52 -53 363
-364 359
-364 -362
-359 362 364
-365 -359
-365 362
359 -362 365
-366 -364
-366 -365
364 365 366
-367 -359
-367 -362
359 362 367
-368 -363
-368 -367
363 367 368
-369 -53
-369 54
53 -54 369
-370 53
-370 -54
-53 54 370
-371 -369
-371 -370
369 370 371
-372 53
-372 54
-53 -54 372
-373 368
-373 -371
-368 371 373
-374 -368
-374 371
368 -371 374
-375 -373
-375 -374
373 374 375
-376 -368
-376 -371
368 371 376
-377 -372
-377 -376
372 376 377
-378 -54
-378 55
54 -55 378
-379 54
-379 -55
-54 55 379
-380 -378
-380 -379
378 379 380
-381 54
-381 55
-54 -55 381
-382 377
-382 -380
-377 380 382
-383 -377
-383 380
377 -380 383
-384 -382
-384 -383
382 383 384
-385 -377
-385 -380
377 380 385
-386 -381
-386 -385
381 385 386
-387 -55
-387 56
55 -56 387
-388 55
-388 -56
-55 56 388
-389 -387
-389 -388
387 388 389
-390 55
-390 56
-55 -56 390
-391 386
-391 -389
-386 389 391
-392 -386
-392 389
386 -389 392
-393 -391
-393 -392
391 392 393
-394 -386
-394 -389
386 389 394
-395 -390
-395 -394
390 394 395
-396 -56
-396 57
56 -57 396
-397 56
-397 -57
-56 57 397
-398 -396
-398 -397
396 397 398
-399 56
-399 57
-56 -57 399
-400 395
-400 -398
-395 398 400
-401 -395
-401 398
395 -398 401
-402 -400
-402 -401
400 401 402
-403 -395
-403 -398
395 398 403
-404 -399
-404 -403
399 403 404
-405 -57
-405 58
57 -58 405
-406 57
-406 -58
-57 58 406
-407 -405
-407 -406
405 406 407
-408 57
-408 58
-57 -58 408
-409 404
-409 -407
-404 407 409
-410 -404
-410 407
404 -407 410
-411 -409
-411 -410
409 410 411
-412 -404
-412 -407
404 407 412
-413 -408
-413 -412
408 412 413
-414 -58
-414 59
58 -59 414
-415 58
-415 -59
-58 59 415
-416 -414
-416 -415
414 415 416
-417 58
-417 59
-58 -59 417
-418 413
-418 -416
-413 416 418
-419 -413
-419 416
413 -416 419
-420 -418
-420 -419
418 419 420
-421 -413
-421 -416
413 416 421
-422 -417
-422 -421
417 421 422
-423 -59
-423 60
59 -60 423
-424 59
-424 -60
-59 60 424
-425 -423
-425 -424
423 424 425
-426 59
-426 60
-59 -60 426
-427 422
-427 -425
-422 425 427
-428 -422
-428 425
422 -425 428
-429 -427
-429 -428
427 428 429
-430 -422
-430 -425
422 425 430
-431 -426
-431 -430
426 430 431
-432 -60
-432 61
60 -61 432
-433 60
-433 -61
-60 61 433
-434 -432
-434 -433
432 433 434
-435 60
-435 61
-60 -61 435
-436 431
-436 -434
-431 434 436
-437 -431
-437 434
431 -434 437
-438 -436
-438 -437
436 437 438
-439 -431
-439 -434
431 434 439
-440 -435
-440 -439
435 439 440
-441 -61
-441 62
61 -62 441
-442 61
-442 -62
-61 62 442
-443 -441
-443 -442
441 442 443
-444 61
-444 62
-61 -62 444
-445 440
-445 -443
-440 443 445
-446 -440
-446 443
440 -443 446
-447 -445
-447 -446
445 446 447
-448 -440
-448 -443
440 443 448
-449 -444
-449 -448
444 448 449
-450 -62
-450 63
62 -63 450
-451 62
-451 -63
-62 63 451
-452 -450
-452 -451
450 451 452
-453 62
-453 63
-62 -63 453
-454 449
-454 -452
-449 452 454
-455 -449
-455 452
449 -452 455
-456 -454
-456 -455
454 455 456
-457 -449
-457 -452
449 452 457
-458 -453
-458 -457
453 457 458
-459 -63
-459 64
63 -64 459
-460 63
-460 -64
-63 64 460
-461 -459
-461 -460
459 460 461
-462 63
-462 64
-63 -64 462
-463 458
-463 -461
-458 461 463
-464 -458
-464 461
458 -461 464
-465 -463
-465 -464
463 464 465
-466 -458
-466 -461
458 461 466
-467 -462
-467 -466
462 466 467
-468 -64
-468 65
64 -65 468
-469 64
-469 -65
-64 65 469
-470 -468
-470 -469
468 469 470
-471 64
-471 65
-64 -65 471
-472 467
-472 -470
-467 470 472
-473 -467
-473 470
467 -470 473
-474 -472
-474 -473
472 473 474
-475 -467
-475 -470
467 470 475
-476 -471
-476 -475
471 475 476
-477 -65
-477 66
65 -66 477
-478 65
-478 -66
-65 66 478
-479 -477
-479 -478
477 478 479
-480 65
-480 66
-65 -66 480
-481 476
-481 -479
-476 479 481
-482 -476
-482 479
476 -479 482
-483 -481
-483 -482
481 482 483
-484 -476
-484 -479
476 479 484
-485 -480
-485 -484
480 484 485
-486 24
-486 -114
-24 114 486
-487 -24
-487 26
24 -26 487
-488 -486
-488 -487
486 487 488
-489 24
-489 -123
-24 123 489
-490 -24
-490 27
24 -27 490
-491 -489
-491 -490
489 490 491
-492 24
-492 -132
-24 132 492
-493 -24
-493 28
24 -28 493
-494 -492
-494 -493
492 493 494
-495 24
-495 -141
-24 141 495
-496 -24
-496 29
24 -29 496
-497 -495
-497 -496
495 496 497
-498 24
-498 -150
-24 150 498
-499 -24
-499 30
24 -30 499
-500 -498
-500 -499
498 499 500
-501 24
-501 -159
-24 159 501
-502 -24
-502 31
24 -31 502
-503 -501
-503 -502
501 502 503
-504 24
-504 -168
-24 168 504
-505 -24
-505 32
24 -32 505
-506 -504
-506 -505
504 505 506
-507 24
-507 -177
-24 177 507
-508 -24
-508 33
24 -33 508
-509 -507
-509 -508
507 508 509
-510 24
-510 -186
-24 186 510
-511 -24
-511 34
24 -34 511
-512 -510
-512 -511
510 511 512
-513 24
-513 -195
-24 195 513
-514 -24
-514 35
24 -35 514
-515 -513
-515 -514
513 514 515
-516 24
-516 -204
-24 204 516
-517 -24
-517 36
24 -36 517
-518 -516
-518 -517
516 517 518
-519 24
-519 -213
-24 213 519
-520 -24
-520 37
24 -37 520
-521 -519
-521 -520
519 520 521
-522 24
-522 -222
-24 222 522
-523 -24
-523 38
24 -38 523
-524 -522
-524 -523
522 523 524
-525 24
-525 -231
-24 231 525
-526 -24
-526 39
24 -39 526
-527 -525
-527 -526
525 526 527
-528 24
-528 -240
-24 240 528
-529 -24
-529 40
24 -40 529
-530 -528
-530 -529
528 529 530
-531 24
-531 -249
-24 249 531
-532 -24
-532 41
24 -41 532
-533 -531
-533 -532
531 532 533
-534 24
-534 -258
-24 258 534
-535 -24
-535 42
24 -42 535
-536 -534
-536 -535
534 535 536
-537 24
-537 -267
-24 267 537
-538 -24
-538 43
24 -43 538
-539 -537
-539 -538
537 538 539
-540 24
-540 -276
-24 276 540
-541 -24
-541 44
24 -44 541
-542 -540
-542 -541
540 541 542
-543 24
-543 -285
-24 285 543
-544 -24
-544 45
24 -45 544
-545 -543
-545 -544
543 544 545
-546 24
-546 -294
-24 294 546
-547 -24
-547 46
24 -46 547
-548 -546
-548 -547
546 547 548
-549 24
-549 -303
-24 303 549
-550 -24
-550 47
24 -47 550
-551 -549
-551 -550
549 550 551
-552 24
-552 -312
-24 312 552
-553 -24
-553 48
24 -48 553
-554 -552
-554 -553
552 553 554
-555 24
-555 -321
-24 321 555
-556 -24
-556 49
24 -49 556
-557 -555
-557 -556
555 556 557
-558 24
-558 -330
-24 330 558
-559 -24
-559 50
24 -50 559
-560 -558
-560 -559
558 559 560
-561 24
-561 -339
-24 339 561
-562 -24
-562 51
24 -51 562
-563 -561
-563 -562
561 562 563
-564 24
-564 -348
-24 348 564
-565 -24
-565 52
24 -52 565
-566 -564
-566 -565
564 565 566
-567 24
-567 -357
-24 357 567
-568 -24
-568 53
24 -53 568
-569 -567
-569 -568
567 568 569
-570 24
-570 -366
-24 366 570
-571 -24
-571 54
24 -54 571
-572 -570
-572 -571
570 571 572
-573 24
-573 -375
-24 375 573
-574 -24
-574 55
24 -55 574
-575 -573
-575 -574
573 574 575
-576 24
-576 -384
-24 384 576
-577 -24
-577 56
24 -56 577
-578 -576
-578 -577
576 577 578
-579 24
-579 -393
-24 393 579
-580 -24
-580 57
24 -57 580
-581 -579
-581 -580
579 580 581
-582 24
-582 -402
-24 402 582
-583 -24
-583 58
24 -58 583
-584 -582
-584 -583
582 583 584
-585 24
-585 -411
-24 411 585
-586 -24
-586 59
24 -59 586
-587 -585
-587 -586
585 586 587
-588 24
-588 -420
-24 420 588
-589 -24
-589 60
24 -60 589
-590 -588
-590 -589
588 589 590
-591 24
-591 -429
-24 429 591
-592 -24
-592 61
24 -61 592
-593 -591
-593 -592
591 592 593
-594 24
-594 -438
-24 438 594
-595 -24
-595 62
24 -62 595
-596 -594
-596 -595
594 595 596
-597 24
-597 -447
-24 447 597
-598 -24
-598 63
24 -63 598
-599 -597
-599 -598
597 598 599
-600 24
-600 -456
-24 456 600
-601 -24
-601 64
24 -64 601
-602 -600
-602 -601
600 601 602
-603 24
-603 -465
-24 465 603
-604 -24
-604 65
24 -65 604
-605 -603
-605 -604
603 604 605
-606 24
-606 -474
-24 474 606
-607 -24
-607 66
24 -66 607
-608 -606
-608 -607
606 607 608
-609 24
-609 -483
-24 483 609
-610 1
-610 107
-1 -107 610
-611 -107
-611 108
107 -108 611
-612 -610
-612 -611
610 611 612
-613 2
-613 107
-2 -107 613
-614 -107
-614 -488
107 488 614
-615 -613
-615 -614
613 614 615
-616 3
-616 107
-3 -107 616
-617 -107
-617 -491
107 491 617
-618 -616
-618 -617
616 617 618
-619 4
-619 107
-4 -107 619
-620 -107
-620 -494
107 494 620
-621 -619
-621 -620
619 620 621
-622 5
-622 107
-5 -107 622
-623 -107
-623 -497
107 497 623
-624 -622
-624 -623
622 623 624
-625 6
-625 107
-6 -107 625
-626 -107
-626 -500
107 500 626
-627 -625
-627 -626
625 626 627
-628 7
-628 107
-7 -107 628
-629 -107
-629 -503
107 503 629
-630 -628
-630 -629
628 629 630
-631 8
-631 107
-8 -107 631
-632 -107
-632 -506
107 506 632
-633 -631
-633 -632
631 632 633
-634 9
-634 107
-9 -107 634
-635 -107
-635 -509
107 509 635
-636 -634
-636 -635
634 635 636
-637 10
-637 107
-10 -107 637
-638 -107
-638 -512
107 512 638
-639 -637
-639 -638
637 638 639
-640 11
-640 107
-11 -107 640
-641 -107
-641 -515
107 515 641
-642 -640
-642 -641
640 641 642
-643 12
-643 107
-12 -107 643
-644 -107
-644 -518
107 518 644
-645 -643
-645 -644
643 644 645
-646 13
-646 107
-13 -107 646
-647 -107
-647 -521
107 521 647
-648 -646
-648 -647
646 647 648
-649 14
-649 107
-14 -107 649
-650 -107
-650 -524
107 524 650
-651 -649
-651 -650
649 650 651
-652 15
-652 107
-15 -107 652
-653 -107
-653 -527
107 527 653
-654 -652
-654 -653
652 653 654
-655 16
-655 107
-16 -107 655
-656 -107
-656 -530
107 530 656
-657 -655
-657 -656
655 656 657
-658 17
-658 107
-17 -107 658
-659 -107
-659 -533
107 533 659
-660 -658
-660 -659
658 659 660
-661 18
-661 107
-18 -107 661
-662 -107
-662 -536
107 536 662
-663 -661
-663 -662
661 662 663
-664 19
-664 107
-19 -107 664
-665 -107
-665 -539
107 539 665
-666 -664
-666 -665
664 665 666
-667 20
-667 107
-20 -107 667
-668 -107
-668 -542
107 542 668
-669 -667
-669 -668
667 668 669
-670 21
-670 107
-21 -107 670
-671 -107
-671 -545
107 545 671
-672 -670
-672 -671
670 671 672
-673 22
-673 107
-22 -107 673
-674 -107
-674 -548
107 548 674
-675 -673
-675 -674
673 674 675
-676 23
-676 107
-23 -107 676
-677 -107
-677 -551
107 551 677
-678 -676
-678 -677
676 677 678
-679 -107
-679 -554
107 554 679
-680 -107
-680 -557
107 557 680
-681 -107
-681 -560
107 560 681
-682 -107
-682 -563
107 563 682
-683 -107
-683 -566
107 566 683
-684 -107
-684 -569
107 569 684
-685 -107
-685 -572
107 572 685
-686 -107
-686 -575
107 575 686
-687 -107
-687 -578
107 578 687
-688 -107
-688 -581
107 581 688
-689 -107
-689 -584
107 584 689
-690 -107
-690 -587
107 587 690
-691 -107
-691 -590
107 590 691
-692 -107
-692 -593
107 593 692
-693 -107
-693 -596
107 596 693
-694 -107
-694 -599
107 599 694
-695 -107
-695 -602
107 602 695
-696 -107
-696 -605
107 605 696
-697 -107
-697 -608
107 608 697
-698 -107
-698 609
107 -609 698
-699 -66
-699 485
66 -485 699
-700 24
-700 -699
-24 699 700
700
